
Gurobi 11.0.3 (linux64) logging started Sat Nov 23 14:20:01 2024

Set parameter LogFile to value "/home/yihong/Coding/OR_SUC/SUC_results_bigM100000_thread4/case24_ieee_rts_theta0.1_epsilon0.05_gurobi_seed790000_num_gen100_N_WDR150_load_scaling_factor1_proposed_T24quadra_cost.txt"
Set parameter TimeLimit to value 3600
Gurobi Optimizer version 11.0.3 build v11.0.3rc0 (linux64 - "Ubuntu 20.04.6 LTS")

CPU model: AMD EPYC 7532 32-Core Processor, instruction set [SSE2|AVX|AVX2]
Thread count: 64 physical cores, 128 logical processors, using up to 4 threads

Optimize a model with 61352 rows, 29911 columns and 1720734 nonzeros
Model fingerprint: 0x2b0c4f9b
Model has 2400 quadratic constraints
Variable types: 27511 continuous, 2400 integer (2400 binary)
Coefficient statistics:
  Matrix range     [3e-04, 2e+03]
  QMatrix range    [2e-03, 8e-03]
  QLMatrix range   [8e-02, 6e+01]
  Objective range  [1e+00, 1e+00]
  Bounds range     [1e+00, 1e+00]
  RHS range        [1e+00, 9e+03]
Presolve removed 50609 rows and 12685 columns
Presolve time: 0.51s
Presolved: 10743 rows, 17226 columns, 64714 nonzeros
Presolved model has 2400 quadratic constraint(s)
Variable types: 14826 continuous, 2400 integer (2400 binary)

Root relaxation: objective 4.040921e+04, 8516 iterations, 0.21 seconds (0.29 work units)

    Nodes    |    Current Node    |     Objective Bounds      |     Work
 Expl Unexpl |  Obj  Depth IntInf | Incumbent    BestBd   Gap | It/Node Time

H    0     0                    677847.59212 40409.2094  94.0%     -    1s
*    0     0               0    677847.59212 40409.2094  94.0%     -    1s
     0     0 346359.704    0  856 677847.592 346359.704  48.9%     -    1s
     0     0 628716.105    0  500 677847.592 628716.105  7.25%     -    1s
     0     0 628892.759    0   52 677847.592 628892.759  7.22%     -    2s
     0     0 628893.099    0   44 677847.592 628893.099  7.22%     -    2s
     0     0 628894.238    0   44 677847.592 628894.238  7.22%     -    2s
     0     0 628894.238    0   44 677847.592 628894.238  7.22%     -    2s
     0     0 628895.290    0   44 677847.592 628895.290  7.22%     -    2s
     0     2 628895.290    0   44 677847.592 628895.290  7.22%     -    3s
    66    86 628959.790   20   36 677847.592 628899.404  7.22%  18.4    5s
   573   744 629048.990   23   13 677847.592 628905.864  7.22%  23.3   11s
   907   807 628992.451   32   37 677847.592 628905.864  7.22%  21.9   15s
   978   863 629110.707   18   29 677847.592 628911.543  7.22%  42.4   20s
  1123  1046 628968.561   29   31 677847.592 628911.543  7.22%  47.9   25s
  1705  1409 629252.434  108    4 677847.592 628911.543  7.22%  58.0   31s
  1944  1484 629404.840  139    2 677847.592 628913.215  7.22%  60.3   37s
  2118  1794 628928.835   20   23 677847.592 628926.909  7.22%  60.1   40s
  3418  2791 630519.269  157    2 677847.592 628928.065  7.22%  53.1   45s
H 4450  1073                    628978.84063 628932.611  0.01%  48.2   48s
* 4450  1073              44    628978.84063 628932.611  0.01%  48.2   48s

Cutting planes:
  Gomory: 8
  Lift-and-project: 2
  Implied bound: 27
  MIR: 41
  Flow cover: 42
  RLT: 28

Explored 5251 nodes (260308 simplex iterations) in 48.89 seconds (54.54 work units)
Thread count was 4 (of 128 available processors)

Solution count 3: 628979 628979 677848 

Optimal solution found (tolerance 1.00e-03)
Warning: max constraint violation (3.0931e-08) exceeds tolerance
Best objective 6.289788406263e+05, best bound 6.289338009094e+05, gap 0.0072%
